c description: Random 5-CNF over 15 variables and 45 clauses
c generator: CNFgen (0.9.0)
c copyright: (C) 2012-2020 Massimo Lauria <massimo.lauria@uniroma1.it>
c url: https://massimolauria.net/cnfgen
c
p cnf 15 45
4 -6 7 9 11 0
3 -4 -5 8 13 0
-2 -5 -9 12 -14 0
2 3 9 12 15 0
2 -3 -5 9 11 0
1 6 -11 13 -14 0
5 -7 8 9 12 0
2 -3 -4 12 13 0
1 3 -9 -13 -14 0
1 3 9 11 -15 0
-2 4 -5 -9 11 0
1 -3 -11 13 15 0
-1 -5 -6 -11 14 0
1 -3 8 11 -12 0
2 8 -11 -12 -14 0
-1 2 -5 11 -14 0
-2 -3 5 -6 7 0
-3 -4 -7 13 -14 0
2 -10 -11 -12 -14 0
1 -4 5 -11 12 0
-4 -5 9 -11 14 0
6 -7 -8 -9 -11 0
-1 5 -7 -9 -11 0
3 -6 9 10 14 0
1 -2 -3 5 13 0
4 5 -8 -11 -13 0
-7 8 10 12 14 0
6 9 -13 -14 15 0
-2 -4 -8 9 11 0
1 3 4 -6 10 0
-5 7 -11 -12 13 0
-1 4 11 -12 -13 0
1 -5 8 9 12 0
5 6 -7 8 13 0
-2 3 -5 -7 10 0
4 -8 10 13 14 0
-5 6 -12 -14 15 0
1 2 5 -7 -15 0
-1 -5 8 -12 13 0
-5 8 9 11 13 0
3 -4 -6 -7 -13 0
-1 2 5 -9 15 0
-3 -5 -12 -13 15 0
-2 -7 -9 -14 15 0
4 11 -12 -13 15 0